experiment/data/lkh-res/Vrp-Set-X-n393/Vrp-Set-X-n393-lkh/0.lkh1.vrp
NAME : 0
COMMENT : CVRP Instance
TYPE : CVRP
DIMENSION : 393
EDGE_WEIGHT_TYPE : EUC_2D
CAPACITY : 78
NODE_COORD_SECTION
1	50000	50000
2	11300	19500
3	37700	23900
4	36400	3900
5	30600	31600
6	79500	1800
7	80300	77100
8	84500	88000
9	44000	45000
10	28400	37000
11	78500	21100
12	86000	31800
13	17000	62100
14	18000	95700
15	70700	91300
16	86100	50500
17	54600	18600
18	91000	99700
19	40300	86500
20	37300	35700
21	31700	39400
22	22500	72900
23	66600	19900
24	50500	5600
25	43600	88500
26	71100	90600
27	73600	68800
28	43900	55000
29	56100	18600
30	27600	29400
31	81000	24400
32	93900	5300
33	55100	22000
34	66200	17900
35	53700	42000
36	84300	54300
37	97000	79800
38	93300	86000
39	51800	91000
40	57100	26500
41	58300	11900
42	98500	15000
43	81000	4800
44	62000	23000
45	85900	27800
46	4000	88200
47	41900	31000
48	6300	71300
49	47100	75800
50	15100	39900
51	80800	81100
52	5400	75600
53	79600	93100
54	69800	6600
55	39100	80800
56	32400	66500
57	40900	56200
58	88600	76000
59	3600	19700
60	68200	51400
61	59600	30500
62	25200	37200
63	56400	1600
64	51500	64100
65	83900	20600
66	16000	31300
67	24800	94500
68	28800	15000
69	32600	20100
70	30100	600
71	31600	80000
72	4500	41000
73	44900	61800
74	19600	39100
75	44800	4100
76	90800	55800
77	30200	67200
78	69400	42500
79	27700	27000
80	57500	99300
81	18300	97200
82	46900	57700
83	89000	72700
84	82600	88300
85	9100	1500
86	52600	33500
87	32500	79300
88	1500	65800
89	23100	69300
90	69800	70100
91	7600	48800
92	57800	51800
93	51000	78500
94	14600	69400
95	58900	97800
96	52600	92600
97	3600	45900
98	85900	84700
99	76200	6400
100	94900	10900
101	62400	77900
102	15200	70900
103	44800	69100
104	51600	56400
105	28900	19500
106	17200	34500
107	95200	44300
108	97400	55000
109	75100	4900
110	39100	83700
111	53100	4400
112	64700	59400
113	93100	7600
114	11100	77900
115	89800	86300
116	93900	98700
117	45500	89800
118	96100	78400
119	71700	40300
120	82900	28400
121	15200	52900
122	39800	98000
123	10500	81200
124	37700	81200
125	55400	87400
126	20900	50800
127	13400	37800
128	22100	15500
129	39600	22800
130	700	2900
131	32700	2800
132	7500	67100
133	11500	77900
134	73400	21600
135	16200	83400
136	23400	97700
137	35300	10100
138	15900	26000
139	56900	50100
140	6800	45800
141	45300	66300
142	38200	36600
143	43000	88300
144	52800	76700
145	96500	32200
146	32800	25400
147	8200	46800
148	64200	31800
149	13500	82800
150	25200	66300
151	81600	88900
152	1300	79500
153	42200	31800
154	23600	84500
155	37300	41700
156	32900	64600
157	97900	82400
158	69200	6500
159	45000	46600
160	85100	58200
161	16600	76500
162	85700	11100
163	19400	8700
164	91800	8400
165	4800	45200
166	29700	78000
167	71000	47600
168	44900	89800
169	89100	58700
170	41000	38700
171	55000	46700
172	44100	53100
173	66100	76200
174	91800	26400
175	22400	3300
176	46900	76000
177	53400	96100
178	37100	25500
179	69400	79400
180	18500	12700
181	38400	5600
182	65000	22300
183	87400	50100
184	82200	43900
185	28900	31200
186	46200	54600
187	13000	55500
188	68600	26900
189	3200	88500
190	84300	61700
191	78600	49300
192	66500	45500
193	59800	31700
194	65500	34300
195	61300	49100
196	72600	60200
197	67400	4700
198	9200	65000
199	34000	87100
200	41100	57700
201	15100	90200
202	17300	97700
203	9400	67200
204	29200	53200
205	16600	92800
206	1900	99200
207	31100	83900
208	29600	54700
209	13300	56400
210	38500	72900
211	10100	96600
212	37000	87000
213	35700	69200
214	40700	54800
215	44300	55400
216	13000	89800
217	23100	82000
218	3000	77100
219	56700	53800
220	6800	58600
221	40500	43500
222	33100	85500
223	21000	86100
224	41000	74400
225	19000	76000
226	35400	93600
227	9100	82400
228	23100	90700
229	23700	96800
230	21900	87800
231	700	68500
232	37600	57700
233	16000	90600
234	16300	99900
235	31300	59800
236	22300	93700
237	34500	89500
238	47800	63300
239	52500	52000
240	15300	85100
241	45900	72000
242	19200	91600
243	18500	79200
244	35100	91200
245	46100	45000
246	2500	98500
247	48600	90500
248	9000	71500
249	32700	53100
250	54000	63200
251	41100	63100
252	23100	91500
253	37100	74800
254	22100	73900
255	13100	65700
256	40200	89300
257	17600	63200
258	6000	85100
259	15200	94700
260	13900	91100
261	17600	96900
262	13900	95400
263	18200	93600
264	14900	99700
265	34800	46600
266	14300	98800
267	30100	85000
268	8300	61000
269	2300	85600
270	10400	69400
271	29300	81900
272	19500	58600
273	30900	83500
274	10100	87600
275	23700	91900
276	14300	89000
277	25500	85100
278	11900	93800
279	14500	87800
280	19300	75700
281	47700	75600
282	40900	61300
283	11400	91900
284	29900	90700
285	39300	59300
286	10700	65100
287	28700	98100
288	19000	94000
289	37800	86100
290	18200	95100
291	42600	81000
292	7600	56300
293	15200	87600
294	8700	69700
295	40500	63200
296	45900	59100
297	6100	92100
298	21600	65600
299	8000	64600
300	20000	80100
301	30200	63100
302	44100	59900
303	3000	98400
304	16400	79700
305	9600	86200
306	34700	52700
307	24900	70000
308	17300	88000
309	41800	77200
310	26200	42600
311	20800	75200
312	22200	60300
313	7600	57100
314	13500	87100
315	7600	97600
316	16300	78400
317	13000	83400
318	48800	79800
319	200	98600
320	800	89500
321	17900	57400
322	15300	88600
323	41900	64900
324	45900	33700
325	28400	86400
326	12000	91800
327	41600	84900
328	1900	78800
329	12900	93200
330	26200	76300
331	10800	52100
332	15400	59400
333	36200	57500
334	12900	99700
335	40200	50900
336	22100	83300
337	14700	82300
338	33200	90100
339	22700	55200
340	42900	87600
341	9500	92600
342	10300	75600
343	51300	81900
344	35900	85300
345	49900	57600
346	45200	63300
347	29200	68300
348	29000	89000
349	17300	99100
350	46600	34100
351	3200	90900
352	2800	61900
353	56700	63900
354	23000	94700
355	14900	94300
356	29500	46000
357	22300	99200
358	33600	90900
359	57800	42300
360	2000	53200
361	52200	60100
362	10500	72600
363	41300	89300
364	33000	93100
365	33500	90400
366	18000	98900
367	22300	69900
368	12500	94500
369	39900	82900
370	36100	40100
371	19500	92200
372	34900	95600
373	35500	86600
374	13400	97000
375	17200	99000
376	28300	76000
377	13500	86100
378	20200	99900
379	33900	59100
380	14100	89400
381	20800	91000
382	14000	63100
383	11700	86000
384	43100	87100
385	17500	49100
386	29300	72900
387	12600	77200
388	5100	63200
389	14400	95500
390	33400	80900
391	38300	87800
392	15800	91000
393	3700	95100
DEMAND_SECTION
1	0
2	5
3	5
4	7
5	9
6	7
7	8
8	5
9	7
10	8
11	7
12	9
13	9
14	10
15	6
16	7
17	9
18	8
19	7
20	6
21	9
22	5
23	5
24	10
25	6
26	6
27	9
28	6
29	6
30	7
31	9
32	6
33	6
34	9
35	5
36	7
37	5
38	8
39	8
40	6
41	5
42	9
43	7
44	10
45	9
46	7
47	10
48	9
49	7
50	9
51	9
52	8
53	8
54	9
55	5
56	8
57	8
58	6
59	9
60	10
61	9
62	10
63	7
64	7
65	7
66	10
67	9
68	8
69	6
70	5
71	5
72	6
73	8
74	5
75	7
76	6
77	9
78	9
79	6
80	9
81	9
82	10
83	10
84	10
85	6
86	5
87	10
88	7
89	10
90	10
91	6
92	6
93	10
94	7
95	7
96	5
97	5
98	7
99	5
100	10
101	6
102	10
103	8
104	8
105	7
106	5
107	8
108	7
109	6
110	6
111	7
112	5
113	8
114	7
115	9
116	7
117	5
118	7
119	10
120	8
121	6
122	6
123	7
124	10
125	6
126	5
127	5
128	8
129	7
130	8
131	5
132	6
133	8
134	7
135	8
136	8
137	8
138	7
139	9
140	8
141	7
142	10
143	6
144	5
145	10
146	6
147	6
148	10
149	5
150	5
151	9
152	9
153	6
154	10
155	7
156	9
157	9
158	5
159	5
160	8
161	10
162	6
163	10
164	8
165	6
166	8
167	8
168	8
169	9
170	9
171	6
172	7
173	7
174	5
175	5
176	10
177	7
178	10
179	9
180	5
181	10
182	10
183	10
184	5
185	9
186	6
187	10
188	5
189	10
190	8
191	10
192	6
193	8
194	6
195	8
196	8
197	10
198	8
199	6
200	5
201	10
202	10
203	10
204	10
205	9
206	9
207	8
208	7
209	9
210	10
211	10
212	6
213	8
214	5
215	5
216	10
217	7
218	6
219	5
220	6
221	10
222	9
223	5
224	10
225	10
226	10
227	5
228	7
229	7
230	9
231	5
232	7
233	8
234	6
235	9
236	10
237	8
238	5
239	5
240	8
241	10
242	5
243	10
244	10
245	7
246	5
247	7
248	5
249	5
250	6
251	5
252	8
253	5
254	8
255	6
256	6
257	10
258	5
259	8
260	10
261	7
262	5
263	8
264	5
265	9
266	9
267	9
268	8
269	5
270	6
271	7
272	5
273	7
274	5
275	10
276	6
277	9
278	9
279	9
280	8
281	8
282	6
283	9
284	10
285	9
286	7
287	9
288	8
289	6
290	6
291	9
292	9
293	5
294	9
295	5
296	7
297	5
298	9
299	6
300	7
301	9
302	8
303	10
304	7
305	6
306	8
307	9
308	5
309	10
310	7
311	8
312	5
313	9
314	8
315	7
316	5
317	5
318	6
319	6
320	6
321	9
322	6
323	5
324	6
325	8
326	10
327	8
328	9
329	7
330	5
331	10
332	9
333	10
334	10
335	5
336	8
337	5
338	5
339	8
340	7
341	6
342	5
343	7
344	9
345	6
346	5
347	9
348	10
349	6
350	8
351	6
352	9
353	6
354	9
355	6
356	10
357	6
358	9
359	5
360	8
361	8
362	8
363	10
364	6
365	8
366	8
367	7
368	6
369	10
370	7
371	7
372	10
373	9
374	5
375	9
376	6
377	10
378	7
379	10
380	7
381	10
382	5
383	6
384	6
385	7
386	6
387	7
388	5
389	7
390	7
391	8
392	7
393	6
DEPOT_SECTION
1
-1
EOF
