experiment/data/lkh-res/Vrp-Set-X-n393/Vrp-Set-X-n393-lkh/0.lkh1.tour
NAME : 0.3865393.tour
COMMENT : Length = 3865393
COMMENT : Found by LKH-3 [Keld Helsgaun] Tue Apr  9 07:47:00 2024
TYPE : TOUR
DIMENSION : 430
TOUR_SECTION
1
186
215
28
57
200
285
282
302
296
82
407
35
41
111
63
197
158
54
109
6
43
99
359
413
330
243
316
161
225
280
311
254
22
307
408
11
65
162
164
113
32
100
42
174
145
410
36
16
183
107
108
76
169
160
190
196
420
238
241
281
49
176
224
103
141
346
73
419
210
267
325
277
154
336
217
347
56
415
121
331
360
220
313
292
187
209
204
402
219
112
90
173
101
353
250
64
361
345
104
397
128
180
163
175
85
130
59
2
138
66
106
399
364
287
229
136
357
378
366
202
261
14
416
384
340
143
25
117
168
363
256
19
327
291
421
341
297
393
319
206
246
303
315
211
368
259
404
142
20
5
185
30
79
146
178
3
129
430
239
139
92
195
60
167
119
78
192
171
395
159
9
221
170
153
47
324
350
245
396
81
375
349
234
264
266
334
374
262
389
355
405
94
362
248
48
231
88
352
388
268
332
272
417
312
382
255
286
198
299
132
203
294
270
102
427
155
370
21
10
62
310
356
249
306
335
409
144
93
343
125
95
80
177
96
39
247
318
426
344
237
365
358
244
226
372
122
391
424
40
33
17
29
34
23
182
44
61
193
414
51
151
84
8
116
18
53
15
26
179
401
150
387
133
114
123
227
305
274
383
317
149
337
304
428
265
74
50
127
72
97
165
140
147
91
385
126
412
342
52
218
328
152
269
320
351
189
46
258
423
213
386
376
166
71
87
390
124
55
309
394
230
381
242
371
288
290
263
205
392
233
418
338
284
67
354
236
275
252
228
348
411
208
339
321
13
257
298
367
89
77
400
194
148
188
134
31
120
45
12
184
191
425
251
295
156
301
235
379
333
232
214
172
398
83
58
118
37
157
38
115
98
7
27
429
86
24
75
181
4
131
70
137
68
105
69
403
201
260
329
278
283
326
216
380
276
422
323
253
273
207
222
199
373
212
289
110
369
406
271
223
308
322
293
279
314
377
240
135
300
-1
EOF
